174109
131 69 9 119 123 133 103 136 54 84 37 1 79 102 129 143 144 45 34 46 80 50 148 64 127 121 57 0 106 19 92 59 25 138 91 30 5 47 33 96 82 65 86 126 107 10 67 109 149 63 55 29 48 116 11 39 135 56 51 8 14 24 31 125 4 97 130 99 115 124 113 90 110 139 52 77 142 71 145 42 141 28 12 78 70 120 36 72 43 21 94 132 41 118 83 117 22 87 35 53 114 6 38 137 88 49 17 73 18 62 7 81 104 147 122 23 100 75 108 40 128 140 20 76 74 111 15 112 85 101 44 26 60 13 2 93 66 61 32 27 105 89 68 134 146 95 98 3 58 16 
